NAME 
ROWS
 N  OBJ
 L  R0      
 L  R1      
 E  R2      
 E  R3      
 E  R4      
 E  R5      
 E  R6      
 E  R7      
 E  R8      
 E  R9      
 E  R10     
 E  R11     
 E  R12     
 E  R13     
 E  R14     
 E  R15     
 E  R16     
COLUMNS
    MARKER    'MARKER'                 'INTORG'
    I0(9)     OBJ       125
    I0(9)     R0        -40
    I0(9)     R1        -182
    I0(9)     R2        2
    I0(9)     R3        15
    I0(9)     R4        9
    I0(9)     R5        8
    I0(9)     R6        -1
    I0(9)     R7        10
    I0(9)     R16       1
    I1(8)     OBJ       -78
    I1(8)     R0        -96
    I1(8)     R1        -143
    I1(8)     R2        1
    I1(8)     R4        6
    I1(8)     R5        16
    I1(8)     R6        16
    I1(8)     R7        14
    I1(8)     R16       1
    I2(8)     OBJ       -28
    I2(8)     R0        -176
    I2(8)     R1        -132
    I2(8)     R2        10
    I2(8)     R3        17
    I2(8)     R4        8
    I2(8)     R5        4
    I2(8)     R7        15
    I2(8)     R16       1
    I3(8)     OBJ       -100
    I3(8)     R0        197
    I3(8)     R1        -76
    I3(8)     R2        9
    I3(8)     R3        2
    I3(8)     R5        2
    I3(8)     R6        1
    I3(8)     R7        19
    I3(8)     R16       1
    I4(8)     OBJ       68
    I4(8)     R0        90
    I4(8)     R1        -151
    I4(8)     R2        10
    I4(8)     R3        18
    I4(8)     R4        19
    I4(8)     R5        2
    I4(8)     R6        6
    I4(8)     R16       1
    I5(8)     OBJ       -59
    I5(8)     R0        -112
    I5(8)     R1        -27
    I5(8)     R2        7
    I5(8)     R3        19
    I5(8)     R4        14
    I5(8)     R6        16
    I5(8)     R7        5
    I5(8)     R16       1
    MARKER    'MARKER'                 'INTEND'
    C6(14)    OBJ       2
    C6(14)    R0        -9
    C6(14)    R1        -9
    C6(14)    R3        2
    C6(14)    R4        -1
    C6(14)    R5        7
    C6(14)    R6        15
    C6(14)    R7        14
    C6(14)    R8        15
    C6(14)    R9        4
    C6(14)    R10       8
    C6(14)    R11       4
    C6(14)    R12       3
    C6(14)    R13       3
    C6(14)    R14       7
    C7(12)    OBJ       6
    C7(12)    R0        7
    C7(12)    R1        -6
    C7(12)    R3        11
    C7(12)    R4        6
    C7(12)    R5        17
    C7(12)    R6        2
    C7(12)    R7        9
    C7(12)    R9        18
    C7(12)    R10       15
    C7(12)    R11       17
    C7(12)    R12       14
    C7(12)    R13       12
    C8(14)    OBJ       1
    C8(14)    R0        -4
    C8(14)    R1        -4
    C8(14)    R2        9
    C8(14)    R3        12
    C8(14)    R6        3
    C8(14)    R7        6
    C8(14)    R8        14
    C8(14)    R9        11
    C8(14)    R10       3
    C8(14)    R11       2
    C8(14)    R12       10
    C8(14)    R13       5
    C8(14)    R14       2
    C8(14)    R15       7
    C9(13)    OBJ       -3
    C9(13)    R0        -2
    C9(13)    R1        3
    C9(13)    R2        -1
    C9(13)    R4        5
    C9(13)    R5        3
    C9(13)    R6        9
    C9(13)    R7        1
    C9(13)    R8        1
    C9(13)    R9        5
    C9(13)    R11       4
    C9(13)    R12       2
    C9(13)    R13       12
    C9(13)    R15       -1
    C10(12)   OBJ       8
    C10(12)   R0        -2
    C10(12)   R1        -8
    C10(12)   R2        16
    C10(12)   R3        6
    C10(12)   R5        15
    C10(12)   R6        8
    C10(12)   R7        6
    C10(12)   R8        11
    C10(12)   R10       8
    C10(12)   R12       16
    C10(12)   R13       13
    C10(12)   R15       11
    C11(13)   OBJ       4
    C11(13)   R0        -2
    C11(13)   R1        8
    C11(13)   R2        12
    C11(13)   R4        14
    C11(13)   R5        10
    C11(13)   R6        17
    C11(13)   R7        17
    C11(13)   R10       14
    C11(13)   R11       12
    C11(13)   R12       12
    C11(13)   R13       15
    C11(13)   R14       10
    C11(13)   R15       17
    C12(15)   OBJ       -7
    C12(15)   R0        -8
    C12(15)   R1        -9
    C12(15)   R2        8
    C12(15)   R3        9
    C12(15)   R4        14
    C12(15)   R5        1
    C12(15)   R6        11
    C12(15)   R7        10
    C12(15)   R8        -1
    C12(15)   R9        19
    C12(15)   R10       10
    C12(15)   R11       7
    C12(15)   R13       10
    C12(15)   R14       5
    C12(15)   R15       15
    C13(12)   OBJ       5
    C13(12)   R0        -8
    C13(12)   R1        7
    C13(12)   R2        7
    C13(12)   R3        17
    C13(12)   R4        3
    C13(12)   R7        15
    C13(12)   R8        12
    C13(12)   R10       2
    C13(12)   R12       1
    C13(12)   R13       11
    C13(12)   R14       8
    C13(12)   R15       8
    C14(10)   OBJ       -6
    C14(10)   R0        -6
    C14(10)   R2        -1
    C14(10)   R4        -1
    C14(10)   R7        15
    C14(10)   R8        12
    C14(10)   R9        17
    C14(10)   R10       11
    C14(10)   R11       1
    C14(10)   R12       10
    C14(10)   R14       -1
    C15(1)    R2        1
    C16(1)    R3        1
    C17(1)    R4        1
    C18(1)    R5        1
    C19(1)    R6        1
    C20(1)    R7        1
    C21(1)    R8        1
    C22(1)    R9        1
    C23(1)    R10       1
    C24(1)    R11       1
    C25(1)    R12       1
    C26(1)    R13       1
    C27(1)    R14       1
    C28(1)    R15       1
    C29(1)    R16       1
RHS
    RHS1      R0        6.9967320261437919e+01
    RHS1      R1        -2.0133333333333334e+02
    RHS1      R2        69
    RHS1      R3        82
    RHS1      R4        51
    RHS1      R5        74
    RHS1      R6        70
    RHS1      R7        96
    RHS1      R8        60
    RHS1      R9        84
    RHS1      R10       75
    RHS1      R11       52
    RHS1      R12       88
    RHS1      R13       97
    RHS1      R14       67
    RHS1      R15       69
    RHS1      R16       2
BOUNDS
 UP BND1      I0(9)     1
 UP BND1      I1(8)     1
 UP BND1      I2(8)     1
 UP BND1      I3(8)     1
 UP BND1      I4(8)     1
 UP BND1      I5(8)     1
ENDATA
